This is Ipopt version 3.12.13, running with linear solver ma57.

Number of nonzeros in equality constraint Jacobian...:        0
Number of nonzeros in inequality constraint Jacobian.:    86544
Number of nonzeros in Lagrangian Hessian.............:       21

Total number of variables............................:        6
                     variables with only lower bounds:        0
                variables with lower and upper bounds:        6
                     variables with only upper bounds:        0
Total number of equality constraints.................:        0
Total number of inequality constraints...............:    14424
        inequality constraints with only lower bounds:        0
   inequality constraints with lower and upper bounds:        0
        inequality constraints with only upper bounds:    14424

iter    objective    inf_pr   inf_du lg(mu)  ||d||  lg(rg) alpha_du alpha_pr  ls
   0  5.2676913e-02 0.00e+00 1.55e+01   0.0 0.00e+00    -  0.00e+00 0.00e+00   0
   1  5.2603057e-02 0.00e+00 1.93e-02  -5.8 1.25e-03    -  9.81e-01 1.00e+00f  1
   2  5.1290661e-02 0.00e+00 3.31e-03  -3.6 4.46e-02    -  8.29e-01 1.00e+00h  1
   3  4.7718843e-02 0.00e+00 1.04e-03  -3.8 8.25e-02    -  9.90e-01 1.00e+00h  1
   4  4.6463644e-02 0.00e+00 5.77e-03  -4.2 3.89e-02    -  9.92e-01 5.29e-01h  1
   5  4.5431007e-02 0.00e+00 3.96e-04  -4.3 7.36e-02    -  9.88e-01 1.00e+00h  1
   6  4.3562782e-02 0.00e+00 7.05e-04  -5.0 9.08e-02    -  8.57e-01 1.00e+00h  1
   7  4.3082863e-02 0.00e+00 5.64e-05  -5.0 4.25e-02    -  1.00e+00 1.00e+00h  1
   8  4.3083892e-02 0.00e+00 6.92e-07  -5.6 1.87e-02    -  1.00e+00 1.00e+00h  1
   9  4.3043119e-02 0.00e+00 1.78e-03  -6.4 3.70e-03    -  1.00e+00 8.27e-01h  1
iter    objective    inf_pr   inf_du lg(mu)  ||d||  lg(rg) alpha_du alpha_pr  ls
  10  4.3041160e-02 0.00e+00 4.27e-09  -8.1 1.43e-03    -  1.00e+00 1.00e+00h  1

Number of Iterations....: 10

                                   (scaled)                 (unscaled)
Objective...............:   4.3041159967711233e-02    4.3041159967711233e-02
Dual infeasibility......:   4.2661393136450718e-09    4.2661393136450718e-09
Constraint violation....:   0.0000000000000000e+00    0.0000000000000000e+00
Complementarity.........:   2.1278355136870361e-08    2.1278355136870361e-08
Overall NLP error.......:   2.1278355136870361e-08    2.1278355136870361e-08


Number of objective function evaluations             = 11
Number of objective gradient evaluations             = 11
Number of equality constraint evaluations            = 0
Number of inequality constraint evaluations          = 11
Number of equality constraint Jacobian evaluations   = 0
Number of inequality constraint Jacobian evaluations = 11
Number of Lagrangian Hessian evaluations             = 10
Total CPU secs in IPOPT (w/o function evaluations)   =      0.150
Total CPU secs in NLP function evaluations           =      0.077

EXIT: Optimal Solution Found.
